<number of tasks>
50

<cycle time>
1000

<order strength>
0.898


<task times>
1 528
2 559
3 606
4 614
5 489
6 736
7 617
8 328
9 463
10 406
11 253
12 489
13 772
14 570
15 579
16 368
17 610
18 390
19 533
20 644
21 667
22 632
23 777
24 611
25 563
26 347
27 337
28 499
29 497
30 560
31 503
32 528
33 673
34 413
35 600
36 592
37 481
38 291
39 513
40 379
41 704
42 486
43 398
44 369
45 275
46 627
47 408
48 430
49 483
50 638

<precedence relations>
1,4
1,5
2,4
2,5
3,4
3,5
4,6
4,7
5,6
5,7
6,8
6,9
6,10
7,8
7,9
7,10
8,11
8,12
8,13
9,11
9,12
9,13
10,11
10,12
10,13
11,14
11,15
12,14
12,15
13,14
13,15
14,16
14,17
14,18
15,16
15,17
15,18
16,19
16,20
16,21
16,22
17,19
17,20
17,21
17,22
18,19
18,20
18,21
18,22
19,23
19,24
19,25
20,23
20,24
20,25
21,23
21,24
22,24
22,25
23,26
23,33
23,40
24,26
24,27
24,28
25,26
25,29
26,36
27,30
27,31
27,33
28,35
28,38
29,31
29,32
30,44
31,34
31,35
32,33
32,34
32,35
33,36
34,36
34,37
34,38
35,36
35,37
36,39
36,41
37,39
37,40
37,41
38,39
39,42
40,42
41,48
42,43
42,44
43,46
43,47
44,45
44,46
45,50
47,48
47,49

<end>
